p cnf 23 8
e 1 0
a 2 3 4 5 0
e 6 7 0
a 8 0
e 9 0
a 10 11 12 0
e 13 14 15 0
a 16 0
e 17 18 0
a 19 0
e 20 21 22 0
a 23 0
-2 -15 -3 0
16 -15 -6 23 0
-10 19 -1 -11 -16 0
-11 -20 22 21 23 0
8 20 5 -15 -17 0
19 -15 -14 0
-21 11 3 9 -16 0
15 16 0
